NAME : Random_TSP_Instance
TYPE : TSP
DIMENSION : 20
EDGE_WEIGHT_TYPE : EXPLICIT
EDGE_WEIGHT_FORMAT : FULL_MATRIX
NODE_COORD_TYPE : NO_COORDS
DISPLAY_DATA_TYPE: TWOD_DISPLAY
EDGE_WEIGHT_SECTION
0.000000 1793378.420089 1793378.420089 1793378.420089 1793378.420089 1793378.420089 28.740998 1793378.420089 80.359841 1793378.420089 1793378.420089 1793378.420089 1793378.420089 1793378.420089 1793378.420089 1793378.420089 1793378.420089 1793378.420089 1793378.420089 1793378.420089
1793378.420089 0.000000 1793378.420089 1793378.420089 32.505385 1793378.420089 1793378.420089 1793378.420089 1793378.420089 1793378.420089 1793378.420089 1793378.420089 72.043609 1793378.420089 1793378.420089 1793378.420089 1793378.420089 1793378.420089 1793378.420089 1793378.420089
1793378.420089 1793378.420089 0.000000 1793378.420089 1793378.420089 1793378.420089 1793378.420089 1793378.420089 1793378.420089 1793378.420089 1793378.420089 1793378.420089 1793378.420089 1793378.420089 1793378.420089 1793378.420089 1793378.420089 87.491765 1793378.420089 25.922741
1793378.420089 1793378.420089 1793378.420089 0.000000 1793378.420089 88.341696 1793378.420089 1793378.420089 88.245355 1793378.420089 1793378.420089 1793378.420089 1793378.420089 1793378.420089 1793378.420089 1793378.420089 1793378.420089 1793378.420089 1793378.420089 1793378.420089
1793378.420089 32.505385 1793378.420089 1793378.420089 0.000000 1793378.420089 1793378.420089 1793378.420089 1793378.420089 1793378.420089 1793378.420089 17.324632 1793378.420089 1793378.420089 1793378.420089 1793378.420089 1793378.420089 1793378.420089 1793378.420089 1793378.420089
1793378.420089 1793378.420089 1793378.420089 88.341696 1793378.420089 0.000000 1793378.420089 1793378.420089 1793378.420089 1793378.420089 1793378.420089 1793378.420089 1793378.420089 48.274949 1793378.420089 1793378.420089 1793378.420089 1793378.420089 1793378.420089 1793378.420089
28.740998 1793378.420089 1793378.420089 1793378.420089 1793378.420089 1793378.420089 0.000000 1793378.420089 1793378.420089 1793378.420089 1793378.420089 1793378.420089 1793378.420089 1793378.420089 1793378.420089 1793378.420089 1793378.420089 1793378.420089 1793378.420089 67.052155
1793378.420089 1793378.420089 1793378.420089 1793378.420089 1793378.420089 1793378.420089 1793378.420089 0.000000 1793378.420089 1793378.420089 1793378.420089 1793378.420089 30.215115 1793378.420089 73.487280 1793378.420089 1793378.420089 1793378.420089 1793378.420089 1793378.420089
80.359841 1793378.420089 1793378.420089 88.245355 1793378.420089 1793378.420089 1793378.420089 1793378.420089 0.000000 1793378.420089 1793378.420089 1793378.420089 1793378.420089 1793378.420089 1793378.420089 1793378.420089 1793378.420089 1793378.420089 1793378.420089 1793378.420089
1793378.420089 1793378.420089 1793378.420089 1793378.420089 1793378.420089 1793378.420089 1793378.420089 1793378.420089 1793378.420089 0.000000 50.580186 1793378.420089 1793378.420089 1793378.420089 1793378.420089 1793378.420089 1793378.420089 97.829257 1793378.420089 1793378.420089
1793378.420089 1793378.420089 1793378.420089 1793378.420089 1793378.420089 1793378.420089 1793378.420089 1793378.420089 1793378.420089 50.580186 0.000000 1793378.420089 1793378.420089 1793378.420089 1793378.420089 62.351501 1793378.420089 1793378.420089 1793378.420089 1793378.420089
1793378.420089 1793378.420089 1793378.420089 1793378.420089 17.324632 1793378.420089 1793378.420089 1793378.420089 1793378.420089 1793378.420089 1793378.420089 0.000000 1793378.420089 1793378.420089 1793378.420089 1793378.420089 68.740599 1793378.420089 1793378.420089 1793378.420089
1793378.420089 72.043609 1793378.420089 1793378.420089 1793378.420089 1793378.420089 1793378.420089 30.215115 1793378.420089 1793378.420089 1793378.420089 1793378.420089 0.000000 1793378.420089 1793378.420089 1793378.420089 1793378.420089 1793378.420089 1793378.420089 1793378.420089
1793378.420089 1793378.420089 1793378.420089 1793378.420089 1793378.420089 48.274949 1793378.420089 1793378.420089 1793378.420089 1793378.420089 1793378.420089 1793378.420089 1793378.420089 0.000000 1793378.420089 1793378.420089 17.718594 1793378.420089 1793378.420089 1793378.420089
1793378.420089 1793378.420089 1793378.420089 1793378.420089 1793378.420089 1793378.420089 1793378.420089 73.487280 1793378.420089 1793378.420089 1793378.420089 1793378.420089 1793378.420089 1793378.420089 0.000000 1793378.420089 1793378.420089 1793378.420089 78.663716 1793378.420089
1793378.420089 1793378.420089 1793378.420089 1793378.420089 1793378.420089 1793378.420089 1793378.420089 1793378.420089 1793378.420089 1793378.420089 62.351501 1793378.420089 1793378.420089 1793378.420089 1793378.420089 0.000000 1793378.420089 1793378.420089 25.635911 1793378.420089
1793378.420089 1793378.420089 1793378.420089 1793378.420089 1793378.420089 1793378.420089 1793378.420089 1793378.420089 1793378.420089 1793378.420089 1793378.420089 68.740599 1793378.420089 17.718594 1793378.420089 1793378.420089 0.000000 1793378.420089 1793378.420089 1793378.420089
1793378.420089 1793378.420089 87.491765 1793378.420089 1793378.420089 1793378.420089 1793378.420089 1793378.420089 1793378.420089 97.829257 1793378.420089 1793378.420089 1793378.420089 1793378.420089 1793378.420089 1793378.420089 1793378.420089 0.000000 1793378.420089 1793378.420089
1793378.420089 1793378.420089 1793378.420089 1793378.420089 1793378.420089 1793378.420089 1793378.420089 1793378.420089 1793378.420089 1793378.420089 1793378.420089 1793378.420089 1793378.420089 1793378.420089 78.663716 25.635911 1793378.420089 1793378.420089 0.000000 1793378.420089
1793378.420089 1793378.420089 25.922741 1793378.420089 1793378.420089 1793378.420089 67.052155 1793378.420089 1793378.420089 1793378.420089 1793378.420089 1793378.420089 1793378.420089 1793378.420089 1793378.420089 1793378.420089 1793378.420089 1793378.420089 1793378.420089 0.000000
EOF
